16878 16878 16267 15897 15330 15330 14898 14456 14269 14159 13851 13556 13508 13057 12849 12623 12453 12165 11832 11446 11257 11025 10872 10612 10464 10215 10152 9948 9803 9563 9346 9130 8972 8853 8689 8528 8405 8248 8121 8089 7938 7824 7706 7630 7460 7437 7403 7293 7203 7154 7100 7003 6956 6902 6819 6769 6691 6603 6597 6542 6482 6442 6398 6339 6267 6248 6189 6151 6126 6087 6067 6032 6000 5945 5917 5897 5837 5796 5760 5730 5692 5654 5619 5588 5562 5521 5516 5475 5463 5449 5425 5413 5400 5386 5358 5341 5316 5294 5278 5263 5245 5219 5211 5200 5184 5168 5150 5144 5126 5104 5092 5083 5067 5052 5042 5013 4991 4986 4964 4953 4938 4929 4911 4893 4875 4869 4857 4855 4843 4833 4786 4786 4762 4725 4720 4712 4697 4684 4674 4655 4643 4584 4570 4562 4548 4537 4518 4481 4477 4467 4464 4454 4442 4435 4420 4407 4399 4387 4379 4371 4361 4358 4352 4347 4344 4342 4334 4324 4318 4313 4296 4288 4279 4266 4260 4249 4249 4205 4205 4191 4187 4183 4176 4168 4158 4157 4143 4137 4117 4098 4097 4082 4076 4061 4053 4048 4046 4039 4031 4030 4024 4016 4015 4007 4003 3993 3992 3976 3976 3976 3976 3974 3967 3967 3967 3966 3960 3957 3953 3944 3943 3941 3941 3932 3931 3931 3925 3925 3925 3915 3915 3914 3914 3913 3911 3911 3909 3905 3903 3900 3899 3898 3896 3895 3892 3889 3888 3884 3883 3883 3883 3883 3883 3882 3882 3882 3882 3882 3877 3877 3877 3877 3877 3877 3877 3871 3871 3871 3870 3870 3870 3862 3862 3862 3862 3862 3862 3862 3861 3861 3861 3861 3861 3849 3844 3844 3832 3832 3832 3832 3832 3830 3830 3830 3830 3830 3830 3830 3830 3830 3830 3830 3829 3829 3828 3828 3828 3828 3828 3828 3828 3828 3822 3822 3822 3822 3822 3822 3816 3816 3816 3816 3816 3816 3816 3816 3816 3816 3814 3814 3814 3814 3814 3814 3814 3814 3814 3810 3810 3810 3810 3810 3810 3810 3810 3810 3810 3810 3810 3806 3806 3806 3806 3806 3806 3806 3806 3806 3806 3806 3806 3806 3806 3806 3806 3806 3806 3806 3806 3806 3806 3806 3806 3806 3806 3804 3804 3804 3804 3804 3804 3804 3804 3798 3798 3798 3798 3798 3797 3797 3797 3796 3787 3787 3786 3786 3786 3786 3786 3786 3786 3786 3786 3786 3785 3785 3785 3785 3785 3785 3785 3785 3785 3785 3785 3785 3785 3785 3785 3785 3785 3785 3785 3785 3785 3785 3785 3785 3785 3785 3785 3785 3785 3785 3785 3785 3785 3785 3785 3785 3785 3785 3785 3785 3785 3785 3785 3785 3785 3785 3785 3785 3785 3785 3785 3785 3785 3785 3785 3785 3785 3785 3785 3785 3785 3785 3785 3785 3785 3785 3785 3785 3785 3785 3785 3785 3785 3785 3785 3785 3785 3785 3785 3785 3785 3785 3785 3785 3785 3785 3785 3785 3785 3785 3785 3785 3785 3785 3785 3785 3785 3785 3785 3785 3785 3785 3785 3785 3785 3785 3785 3785 3785 3785 3785 3785 3785 3785 3785 3785 3785 3785 3785 3785 3785 3785 3785 3785 3785 3785 3785 3785 3785 3785 3785 3785 3785 3785 3785 3785 3785 3785 3785 3785 3785 3785 3785 3785 3785 3785 3785 3785 3785 3785 3785 3785 3785 3785 3785 3785 3785 3785 3785 3785 3785 3785 3785 3785 3785 3785 3785 3785 3785 3785 3785 3785 3785 3785 3785 3785 3785 3785 3785 3785 3785 3785 3785 3785 3785 3785 3785 3785 3785 3785 3785 3785 3785 3785 3785 3785 3785 3785 3785 3785 3785 3785 3785 3785 3785 3785 3785 3785 3785 3785 3785 3785 3785 3785 3785 3785 3785 3785 3785 3785 3785 3785 3785 3785 3785 3785 3785 3785 3785 3785 3785 3785 3785 3785 3785 3785 3785 3785 3785 3785 3785 3785 3785 3785 3785 3785 3785 3785 3785 3785 3785 3785 3785 3785 3785 3785 3785 3785 3785 3785 3785 3785 3785 3785 3785 3785 3785 3785 3785 3785 3785 3785 3785 3785 3785 3785 3785 3785 3785 3785 3785 3785 3785 3785 3785 3785 3785 3785 3785 3785 3785 3785 3785 3785 3785 3785 3785 3785 3785 3785 3785 3785 3785 3785 3785 3785 3785 3785 3785 3785 3785 3785 3785 3785 3785 3785 3785 3785 3785 3785 3785 3785 3785 3785 3785 3785 3785 3785 3785 3785 3785 3785 3785 3785 3785 3785 3785 3785 3785 3785 3785 3785 3785 3785 3785 3785 3785 3785 3785 3785 3785 3785 3785 3785 3785 3785 3785 3785 3785 3785 3785 3785 3785 3785 3785 3785 3785 3785 3785 3785 3785 3785 3785 3785 3785 3785 3785 3785 3785 3785 3785 3785 3785 3785 3785 3785 3785 3785 3785 3785 3785 3785 3785 3785 3785 3785 3785 3785 3785 3785 3785 3785 3785 3785 3785 3785 3785 3785 3785 3785 3785 3785 3785 3785 3785 3785 3785 3785 3785 3785 3785 3785 3785 3785 3785 3785 3785 3785 3785 3785 3785 3785 3785 3785 3785 3785 3785 3785 3785 3785 3785 3785 3785 3785 3785 3785 3785 3785 3785 3785 3785 3785 3785 3785 3785 3785 3785 3785 3785 3785 3785 3785 3785 3785 3785 3785 3785 3785 3785 3785 3785 3785 3785 3785 3785 3785 3785 3785 3785 3785 3785 3785 3785 3785 3785 3785 3785 3785 3785 3785 3785 3785 3785 3785 3785 3785 3785 3785 3785 3785 3785 3785 3785 3785 3785 3785 3785 3785 3785 3785 3785 3785 3785 3785 3785 3785 3785 3785 3785 3785 3785 3785 3785 3785 3785 3785 3785 3785 3785 3785 3785 3785 3785 3785 3785 3785 3785 3785 3785 3785 3785 3785 3785 3785 3785 3785 3785 3785 3785 3785 3785 3785 3785 3785 3785 3785 3785 3785 3785 3785 3785 3785 3785 3785 3785 3785 3785 3785 3785 3785 3785 3785 3785 3785 3785 3785 3785 3785 3785 3785 3785 3785 3785 3785 3785 3785 3785 3785 3785 3785 3785 3785 3785 3785 3785 3785 3785 3785 3785 3785 3785 3785 3785 3785 3785 3785 3785 3785 3785 3785 3785 3785 3785 3785 3785 3785 3785 3785 3785 3785 3785 3785 3785 3785 3785 3785 3785 3785 3785 3785 3785 3785 3785 3785 3785 3785 3785 3785 3785 3785 3785 3785 3785 3785 3785 3785 3785 3785 3785 3785 3785 3785 3785 3785 3785 3785 3785 3785 3785 3785 3785 3785 3785 3785 3785 3785 3785 3785 3785 3785 3785 3785 3785 3785 3785 3785 3785 3785 3785 3785 3785 3785 3785 3785 3785 3785 3785 3785 3785 3785 3785 3785 3785 3785 3785 3785 3785 3785 3785 3785 3785 3785 3785 3785 3785 3785 3785 3785 3785 3785 3785 3785 3785 3785 3785 3785 3785 3785 3785 3785 3785 3785 3785 3785 3785 3785 3785 3785 3785 3785 3785 3785 3785 3785 3785 3785 3785 3785 3785 3785 3785 3785 3785 3785 3785 3785 3785 3785 3785 3785 3785 3785 3785 3785 3785 3785 3785 3785 3785 3785 3785 3785 3785 3785 3785 3785 3785 3785 3785 3785 3785 3785 3785 3785 3785 3785 3785 3785 3785 3785 3785 3785 3785 3785 3785 3785 3785 3785 3785 3785 3785 3785 3785 3785 3785 3785 3785 3785 3785 3785 3785 3785 3785 3785 3785 3785 3785 3785 3785 3785 3785 3785 3785 3785 3785 3785 3785 3785 3785 3785 3785 3785 3785 3785 3785 3785 3785 3785 3785 3785 3785 3785 3785 3785 3785 3785 3785 3785 3785 3785 3785 3785 3785 3785 3785 3785 3785 3785 3785 3785 3785 3785 3785 3785 3785 3785 3785 3785 3785 3785 3785 3785 3785 3785 3785 3785 3785 3785 3785 3785 3785 3785 3785 3785 3785 3785 3785 3785 3785 3785 3785 3785 3785 3785 3785 3785 3785 3785 3785 3785 3785 3785 3785 3785 3785 3785 3785 3785 3785 3785 3785 3785 3785 3785 3785 3785 3785 3785 3785 3785 3785 3785 3785 3785 3785 3785 3785 3785 3785 3785 3785 3785 3785 3785 3785 3785 3785 3785 3785 3785 3785 3785 3785 3785 3785 3785 3785 3785 3785 3785 3785 3785 3785 3785 3785 3785 3785 3785 3785 3785 3785 3785 3785 3785 3785 3785 3785 3785 3785 3785 3785 3785 3785 3785 3785 3785 3785 3785 3785 3785 3785 3785 3785 3785 3785 3785 3785 3785 3785 3785 3785 3785 3785 3785 3785 3785 3785 3785 3785 3785 3785 3785 3785 3785 3785 3785 3785 3785 3785 3785 3785 3785 3785 3785 3785 3785 3785 3785 3785 3785 3785 3785 3785 3785 3785 3785 3785 3785 3785 3785 3785 3785 3785 3785 3785 3785 3785 3785 3785 3785 3785 3785 3785 3785 3785 3785 3785 3785 3785 3785 3785 3785 3785 3785 3785 3785 3785 3785 3785 3785 3785 3785 3785 3785 3785 3785 3785 3785 3785 3785 3785 3785 3785 3785 3785 3785 3785 3785 3785 3785 3785 3785 3785 3785 3785 3785 3785 3785 3785 3785 3785 3785 3785 3785 3785 3785 3785 3785 3785 3785 3785 3785 3785 3785 3785 3785 
19041 18090 17487 16989 16576 16207 15863 15524 15235 14942 14676 14356 14137 13871 13555 13254 12945 12694 12453 12195 11923 11660 11413 11167 10942 10708 10519 10363 10189 10006 9815 9597 9395 9200 9039 8894 8738 8589 8445 8314 8196 8083 7967 7856 7750 7652 7561 7478 7403 7314 7232 7165 7096 7030 6960 6900 6834 6759 6692 6637 6589 6533 6481 6436 6388 6331 6277 6247 6209 6165 6124 6090 6066 6038 6005 5972 5933 5904 5866 5806 5765 5723 5685 5645 5614 5584 5556 5532 5508 5484 5462 5444 5433 5416 5398 5385 5359 5335 5313 5293 5282 5266 5243 5218 5210 5200 5188 5174 5159 5143 5124 5108 5097 5083 5071 5053 5040 5017 5000 4984 4963 4955 4940 4923 4906 4898 4875 4868 4858 4856 4844 4838 4820 4788 4761 4755 4723 4712 4701 4686 4669 4655 4643 4630 4599 4566 4550 4533 4508 4484 4479 4471 4461 4453 4445 4437 4430 4415 4398 4390 4383 4373 4364 4357 4351 4351 4345 4343 4336 4329 4322 4316 4309 4290 4279 4275 4264 4258 4248 4245 4219 4198 4189 4182 4182 4175 4167 4156 4140 4133 4116 4100 4096 4089 4078 4065 4055 4050 4046 4040 4035 4029 4025 4020 4014 4007 4006 4001 3992 3990 3981 3975 3975 3975 3973 3967 3966 3966 3959 3956 3953 3947 3943 3941 3940 3938 3931 3930 3930 3924 3924 3924 3918 3914 3913 3913 3912 3910 3908 3906 3904 3902 3899 3898 3895 3894 3894 3890 3888 3886 3883 3883 3883 3882 3882 3882 3882 3882 3881 3881 3881 3878 3877 3877 3877 3876 3876 3876 3875 3870 3870 3870 3869 3869 3862 3862 3862 3862 3861 3861 3861 3861 3861 3860 3860 3859 3848 3846 3842 3832 3832 3831 3831 3831 3830 3830 3830 3830 3830 3830 3830 3830 3829 3829 3829 3828 3828 3828 3828 3828 3828 3828 3827 3827 3827 3822 3822 3822 3821 3821 3821 3816 3816 3816 3816 3816 3816 3816 3815 3815 3815 3814 3814 3814 3814 3814 3814 3813 3813 3813 3810 3810 3810 3810 3810 3810 3810 3810 3810 3809 3809 3809 3806 3806 3806 3806 3806 3806 3806 3806 3806 3806 3806 3806 3806 3806 3806 3806 3806 3806 3806 3806 3806 3806 3806 3805 3805 3805 3804 3804 3804 3804 3804 3803 3803 3803 3798 3798 3797 3797 3797 3796 3796 3795 3795 3786 3786 3786 3786 3786 3786 3786 3786 3786 3785 3785 3785 3785 3785 3785 3785 3785 3785 3785 3785 3785 3785 3785 3785 3785 3785 3785 3785 3785 3785 3785 3785 3785 3785 3785 3785 3785 3785 3785 3785 3785 3785 3785 3785 3785 3785 3785 3785 3785 3785 3785 3785 3785 3785 3785 3785 3785 3785 3785 3785 3785 3785 3785 3785 3785 3785 3785 3785 3785 3785 3785 3785 3785 3785 3785 3785 3785 3785 3785 3785 3785 3785 3785 3785 3785 3785 3785 3785 3785 3785 3785 3785 3785 3785 3785 3785 3785 3785 3785 3785 3785 3785 3785 3785 3785 3785 3785 3785 3785 3785 3785 3785 3785 3785 3785 3785 3785 3785 3785 3785 3785 3785 3785 3785 3785 3785 3785 3785 3785 3785 3785 3785 3785 3785 3785 3785 3785 3785 3785 3785 3785 3785 3785 3785 3785 3785 3785 3785 3785 3785 3785 3785 3785 3785 3785 3785 3785 3785 3785 3785 3785 3785 3785 3785 3785 3785 3785 3785 3785 3785 3785 3785 3785 3785 3785 3785 3785 3785 3785 3785 3785 3785 3785 3785 3785 3785 3785 3785 3785 3785 3785 3785 3785 3785 3785 3785 3785 3785 3785 3785 3785 3785 3785 3785 3785 3785 3785 3785 3785 3785 3785 3785 3785 3785 3785 3785 3785 3785 3785 3785 3785 3785 3785 3785 3785 3785 3785 3785 3785 3785 3785 3785 3785 3785 3785 3785 3785 3785 3785 3785 3785 3785 3785 3785 3785 3785 3785 3785 3785 3785 3785 3785 3785 3785 3785 3785 3785 3785 3785 3785 3785 3785 3785 3785 3785 3785 3785 3785 3785 3785 3785 3785 3785 3785 3785 3785 3785 3785 3785 3785 3785 3785 3785 3785 3785 3785 3785 3785 3785 3785 3785 3785 3785 3785 3785 3785 3785 3785 3785 3785 3785 3785 3785 3785 3785 3785 3785 3785 3785 3785 3785 3785 3785 3785 3785 3785 3785 3785 3785 3785 3785 3785 3785 3785 3785 3785 3785 3785 3785 3785 3785 3785 3785 3785 3785 3785 3785 3785 3785 3785 3785 3785 3785 3785 3785 3785 3785 3785 3785 3785 3785 3785 3785 3785 3785 3785 3785 3785 3785 3785 3785 3785 3785 3785 3785 3785 3785 3785 3785 3785 3785 3785 3785 3785 3785 3785 3785 3785 3785 3785 3785 3785 3785 3785 3785 3785 3785 3785 3785 3785 3785 3785 3785 3785 3785 3785 3785 3785 3785 3785 3785 3785 3785 3785 3785 3785 3785 3785 3785 3785 3785 3785 3785 3785 3785 3785 3785 3785 3785 3785 3785 3785 3785 3785 3785 3785 3785 3785 3785 3785 3785 3785 3785 3785 3785 3785 3785 3785 3785 3785 3785 3785 3785 3785 3785 3785 3785 3785 3785 3785 3785 3785 3785 3785 3785 3785 3785 3785 3785 3785 3785 3785 3785 3785 3785 3785 3785 3785 3785 3785 3785 3785 3785 3785 3785 3785 3785 3785 3785 3785 3785 3785 3785 3785 3785 3785 3785 3785 3785 3785 3785 3785 3785 3785 3785 3785 3785 3785 3785 3785 3785 3785 3785 3785 3785 3785 3785 3785 3785 3785 3785 3785 3785 3785 3785 3785 3785 3785 3785 3785 3785 3785 3785 3785 3785 3785 3785 3785 3785 3785 3785 3785 3785 3785 3785 3785 3785 3785 3785 3785 3785 3785 3785 3785 3785 3785 3785 3785 3785 3785 3785 3785 3785 3785 3785 3785 3785 3785 3785 3785 3785 3785 3785 3785 3785 3785 3785 3785 3785 3785 3785 3785 3785 3785 3785 3785 3785 3785 3785 3785 3785 3785 3785 3785 3785 3785 3785 3785 3785 3785 3785 3785 3785 3785 3785 3785 3785 3785 3785 3785 3785 3785 3785 3785 3785 3785 3785 3785 3785 3785 3785 3785 3785 3785 3785 3785 3785 3785 3785 3785 3785 3785 3785 3785 3785 3785 3785 3785 3785 3785 3785 3785 3785 3785 3785 3785 3785 3785 3785 3785 3785 3785 3785 3785 3785 3785 3785 3785 3785 3785 3785 3785 3785 3785 3785 3785 3785 3785 3785 3785 3785 3785 3785 3785 3785 3785 3785 3785 3785 3785 3785 3785 3785 3785 3785 3785 3785 3785 3785 3785 3785 3785 3785 3785 3785 3785 3785 3785 3785 3785 3785 3785 3785 3785 3785 3785 3785 3785 3785 3785 3785 3785 3785 3785 3785 3785 3785 3785 3785 3785 3785 3785 3785 3785 3785 3785 3785 3785 3785 3785 3785 3785 3785 3785 3785 3785 3785 3785 3785 3785 3785 3785 3785 3785 3785 3785 3785 3785 3785 3785 3785 3785 3785 3785 3785 3785 3785 3785 3785 3785 3785 3785 3785 3785 3785 3785 3785 3785 3785 3785 3785 3785 3785 3785 3785 3785 3785 3785 3785 3785 3785 3785 3785 3785 3785 3785 3785 3785 3785 3785 3785 3785 3785 3785 3785 3785 3785 3785 3785 3785 3785 3785 3785 3785 3785 3785 3785 3785 3785 3785 3785 3785 3785 3785 3785 3785 3785 3785 3785 3785 3785 3785 3785 3785 3785 3785 3785 3785 3785 3785 3785 3785 3785 3785 3785 3785 3785 3785 3785 3785 3785 3785 3785 3785 3785 3785 3785 3785 3785 3785 3785 3785 3785 3785 3785 3785 3785 3785 3785 3785 3785 3785 3785 3785 3785 3785 3785 3785 3785 3785 3785 3785 3785 3785 3785 3785 3785 3785 3785 3785 3785 3785 3785 3785 3785 3785 3785 3785 3785 3785 3785 3785 3785 3785 3785 3785 3785 3785 3785 3785 3785 3785 3785 3785 3785 3785 3785 3785 3785 3785 3785 3785 3785 3785 3785 3785 3785 3785 3785 3785 3785 3785 3785 3785 3785 3785 3785 3785 3785 3785 3785 3785 3785 3785 3785 3785 3785 3785 3785 3785 3785 3785 3785 3785 3785 3785 3785 3785 3785 3785 3785 3785 3785 3785 3785 3785 3785 3785 3785 3785 3785 3785 3785 3785 3785 3785 3785 3785 3785 3785 3785 3785 3785 3785 3785 3785 3785 3785 3785 3785 3785 3785 3785 3785 3785 3785 3785 3785 3785 3785 3785 3785 3785 3785 3785 3785 3785 3785 3785 3785 3785 3785 3785 3785 3785 3785 3785 3785 3785 3785 3785 3785 3785 3785 3785 3785 3785 3785 3785 3785 3785 3785 3785 3785 3785 3785 3785 3785 3785 3785 3785 3785 3785 3785 3785 3785 3785 3785 3785 3785 3785 3785 3785 3785 3785 3785 3785 3785 3785 3785 3785 3785 3785 3785 3785 3785 3785 3785 3785 3785 3785 3785 3785 3785 3785 3785 3785 3785 3785 3785 3785 3785 3785 3785 3785 3785 3785 3785 3785 3785 3785 3785 3785 3785 3785 3785 3785 3785 3785 3785 3785 3785 3785 3785 3785 3785 3785 3785 3785 3785 3785 3785 3785 3785 3785 3785 3785 3785 3785 3785 3785 3785 3785 3785 3785 